000 000 000 000 001 000 001 001 001 000 000 000 001 001 001 003 002 002 002 002 001 002 001 001 001 002 001 002 002 002 002
000 000 000 001 001 001 001 001 001 001 000 000 001 001 001 002 002 002 002 001 001 001 002 001 003 002 001 003 003 002 001
000 000 000 001 001 001 001 001 001 001 001 000 001 001 001 002 002 002 003 002 001 001 002 003 003 002 001 001 001 -99 001
000 000 000 000 001 001 001 001 001 001 001 000 001 001 001 001 002 002 003 002 003 002 002 002 002 002 001 001 001 001 001
000 000 000 000 000 001 001 001 001 001 000 000 001 001 001 001 002 002 003 003 001 001 002 002 002 002 001 001 001 002 002
000 000 000 000 001 001 001 001 001 001 001 001 001 001 001 001 002 002 003 003 002 002 002 002 001 002 001 001 003 003 004
000 000 000 000 001 001 001 001 002 001 001 001 001 000 001 002 002 002 002 002 002 002 001 001 002 002 002 003 005 010 010
000 000 000 000 001 001 001 001 001 001 001 001 001 001 001 001 002 001 002 002 002 002 002 002 003 004 003 006 006 011 010
000 001 000 001 000 001 001 001 001 001 001 001 001 001 001 001 002 001 002 002 002 002 001 002 004 007 005 009 010 013 012
000 000 000 000 001 001 000 001 001 001 001 001 001 001 001 001 001 001 002 002 001 002 002 003 003 006 013 009 010 013 007
000 000 000 000 000 000 000 000 000 000 000 000 001 001 001 001 001 001 002 001 001 002 002 003 007 011 010 009 011 009 008
000 000 000 000 001 000 000 000 000 000 000 000 000 000 001 001 002 002 002 001 002 004 004 005 007 011 007 013 011 007 009
000 000 000 000 000 000 000 000 000 000 000 000 000 000 000 001 002 003 002 002 003 003 003 004 008 005 010 010 006 007 007
000 000 000 000 000 000 000 000 000 000 000 000 000 000 000 000 001 003 003 002 004 003 004 004 007 009 006 008 005 006 005
000 000 000 000 000 000 000 000 000 000 000 000 000 000 000 000 001 001 001 003 005 003 004 003 006 007 005 005 003 003 003
000 000 000 000 000 000 000 000 000 000 000 000 000 000 000 001 001 001 001 002 005 007 006 004 005 004 004 004 002 002 003
000 -99 -99 -99 -99 000 000 000 000 000 000 000 000 000 000 000 000 001 001 003 003 002 002 003 003 003 002 003 002 002 002
-99 000 000 -99 -99 000 000 000 000 000 000 000 000 000 000 000 000 000 001 001 000 001 002 002 003 002 002 002 002 002 002
000 000 000 -99 -99 -99 000 000 000 000 000 000 000 000 000 000 000 000 000 000 000 001 002 003 003 002 001 001 002 002 002
000 000 000 -99 -99 -99 000 000 000 000 000 000 000 000 000 000 000 000 000 000 000 000 000 -99 -99 001 000 -99 -99 001 002
000 000 000 000 000 000 000 001 000 000 000 000 000 000 000 000 000 000 000 000 000 000 000 -99 -99 -99 -99 -99 -99 -99 -99
000 000 000 000 000 000 000 001 000 000 001 001 000 000 000 000 000 000 000 000 000 000 000 -99 -99 -99 -99 -99 -99 -99 -99
000 000 000 000 000 000 000 001 000 000 001 001 000 000 000 000 000 -99 000 000 000 000 000 -99 -99 -99 -99 -99 -99 -99 -99
000 000 000 000 000 000 000 000 000 000 000 000 000 000 000 000 000 -99 000 000 000 000 000 -99 -99 -99 -99 -99 -99 -99 001
000 000 000 000 000 000 000 000 000 000 000 000 000 000 000 000 000 000 000 000 000 000 000 -99 -99 -99 -99 -99 -99 -99 001
000 000 000 000 000 000 000 000 000 000 000 000 000 000 000 000 000 000 000 000 000 000 000 -99 -99 -99 -99 -99 -99 000 000
000 000 000 000 000 000 000 000 000 000 000 000 000 000 000 000 000 000 000 000 000 000 000 -99 -99 -99 -99 -99 -99 000 000
000 000 000 000 000 000 000 000 000 000 -99 -99 000 000 000 000 000 000 000 000 000 000 000 -99 -99 -99 -99 -99 -99 001 001
000 000 000 000 000 000 000 000 000 000 000 -99 000 000 000 -99 000 000 000 000 000 000 -99 -99 -99 -99 -99 -99 000 001 001
000 000 000 000 000 000 000 000 000 000 000 -99 -99 000 000 000 000 000 000 000 000 000 -99 -99 -99 -99 -99 000 000 -99 001
000 000 000 000 000 -99 000 000 000 000 000 -99 000 000 000 000 000 000 000 -99 -99 -99 -99 -99 -99 -99 -99 000 000 -99 000
000 000 000 000 000 000 -99 000 000 000 -99 -99 000 000 000 000 000 000 000 -99 -99 -99 -99 000 000 -99 -99 000 000 -99 000
000 000 000 000 000 000 000 000 000 000 000 -99 000 000 000 000 000 000 -99 -99 -99 -99 -99 000 000 -99 -99 000 000 -99 000
000 000 000 000 000 000 000 000 000 000 000 000 000 000 000 000 000 000 000 000 -99 -99 000 000 000 000 -99 000 000 -99 000
000 000 000 000 000 000 000 000 000 000 000 000 000 000 000 -99 000 000 000 000 000 000 000 000 000 000 000 000 000 -99 000
000 000 000 000 000 000 000 000 000 000 000 000 000 000 000 000 000 -99 000 000 000 000 000 -99 000 000 000 000 000 000 000
000 000 000 000 000 000 000 000 000 000 000 000 000 000 000 000 000 -99 000 000 000 000 000 -99 000 000 000 000 000 000 000
-99 000 000 000 000 -99 000 000 000 000 000 000 000 000 000 000 000 -99 000 000 000 000 000 -99 -99 000 000 000 000 000 000
-99 000 000 000 000 000 000 000 000 000 -99 000 000 000 000 000 -99 000 000 000 000 000 000 000 -99 000 000 000 000 000 000
-99 000 000 000 000 000 000 000 000 -99 000 000 000 000 000 000 000 000 000 000 000 000 000 000 000 000 000 000 000 000 000
000 000 000 000 000 000 000 -99 -99 -99 000 000 000 000 000 000 000 000 000 000 000 000 000 000 000 000 000 000 000 000 000
000 000 000 000 -99 000 000 -99 -99 000 000 -99 000 000 000 000 000 000 000 000 000 000 000 000 000 000 -99 000 000 000 000
000 000 000 -99 000 000 000 -99 -99 000 000 -99 000 000 -99 000 000 000 000 000 000 000 000 000 000 000 -99 -99 -99 -99 -99
000 000 000 -99 000 000 -99 -99 -99 000 000 000 000 000 000 000 -99 000 000 000 000 000 000 000 000 000 -99 -99 -99 -99 -99
000 000 -99 -99 000 000 -99 -99 -99 000 000 000 000 000 000 -99 000 000 000 000 000 000 000 000 000 -99 -99 -99 -99 -99 -99
000 -99 -99 -99 -99 -99 -99 -99 000 000 000 000 000 000 000 -99 -99 000 000 000 000 000 000 000 000 -99 -99 -99 -99 -99 -99
000 -99 -99 -99 -99 -99 -99 -99 -99 000 -99 000 000 000 000 -99 -99 000 000 000 000 000 000 000 000 000 -99 -99 -99 -99 000
-99 -99 -99 -99 -99 -99 -99 -99 000 000 000 000 000 000 000 -99 -99 000 000 000 000 000 000 000 000 000 -99 -99 000 -99 -99
-99 -99 -99 -99 -99 -99 -99 -99 000 000 -99 000 000 000 000 -99 000 000 000 000 000 -99 000 000 000 000 -99 000 000 -99 -99
-99 -99 -99 -99 -99 -99 -99 000 000 000 -99 -99 -99 000 000 -99 -99 000 -99 000 000 000 000 000 000 -99 000 000 -99 -99 -99
-99 -99 -99 -99 -99 -99 -99 000 000 000 -99 -99 000 000 000 -99 -99 -99 000 000 000 000 000 -99 -99 -99 000 000 -99 -99 -99
-99 -99 -99 -99 -99 -99 000 000 000 -99 -99 -99 000 000 -99 -99 -99 -99 000 000 000 -99 000 -99 -99 -99 -99 -99 -99 -99 -99
-99 -99 -99 -99 -99 -99 000 000 -99 -99 -99 -99 000 000 -99 -99 -99 000 000 000 000 -99 -99 -99 -99 -99 -99 -99 -99 -99 -99
-99 -99 -99 -99 -99 -99 -99 -99 -99 000 -99 000 000 000 -99 -99 000 000 000 000 -99 -99 -99 -99 -99 -99 -99 -99 -99 -99 -99
-99 -99 -99 -99 -99 -99 -99 -99 -99 000 000 -99 000 -99 -99 000 000 000 000 000 -99 -99 -99 -99 -99 -99 -99 -99 -99 -99 -99
